WARNING: for repeatability, setting FPU to use double precision
============================[ Problem Statistics ]=============================
|                                                                             |
|  Number of variables:           100                                         |
|  Number of clauses:             449                                         |
|  Parse time:                   0.00 s                                       |
|  Simplification time:          0.00 s                                       |
|                                                                             |
============================[ Search Statistics ]==============================
| Conflicts |          ORIGINAL         |          LEARNT          | Progress |
|           |    Vars  Clauses Literals |    Limit  Clauses Lit/Cl |          |
===============================================================================
|       100 |     100      448     1344 |      164      100      6 |  0.010 % |
===============================================================================
restarts              : 2
conflicts             : 132            (47757 /sec)
decisions             : 168            (0.00 % random) (60781 /sec)
propagations          : 3084           (1115774 /sec)
conflict literals     : 838            (15.35 % deleted)
Memory used           : 13.00 MB
CPU time              : 0.002764 s

SATISFIABLE
